peakDumbCharging = 11100; 
Machine = anon_enum(16); 
machineSpeed = [3700,3700,3700,3700,3700,3700,3700,3700,3700,3700,3700,3700,3700,3700,3700,3700]; 
machineLoad = [3700,3700,3700,3700,3700,3700,3700,3700,3700,3700,3700,3700,3700,3700,3700,3700]; 
Car = anon_enum(8); 
demandCar = [17440,1640,19520,1480,14480,12120,3320,6360]; 
arrivalCar = [68,65,57,56,53,49,42,36]; 
departureCar = [75,66,67,57,58,54,44,39]; 
